language Essence 1.3

letting course_load be
        function(1 --> 10, 2 --> 8, 3 --> 6, 4 --> 1, 5 --> 5, 6 --> 10, 7 --> 1, 8 --> 4, 9 --> 2, 10 --> 2, 11 --> 6,
                 12 --> 1, 13 --> 6, 14 --> 5, 15 --> 1, 16 --> 7, 17 --> 10, 18 --> 8, 19 --> 6, 20 --> 6, 21 --> 8,
                 22 --> 9, 23 --> 5, 24 --> 6, 25 --> 4, 26 --> 1, 27 --> 4, 28 --> 7, 29 --> 2, 30 --> 5, 31 --> 7,
                 32 --> 7, 33 --> 7)
letting courses_per_period_lb be 1
letting courses_per_period_ub be 15
letting load_per_period_lb be 7
letting load_per_period_ub be 32
letting n_courses be 33
letting n_periods be 15
letting prerequisite be
        relation((1, 27), (1, 30), (1, 32), (1, 33), (2, 23), (2, 24), (2, 25), (2, 27), (2, 29), (2, 30), (2, 31),
                 (3, 25), (3, 28), (3, 29), (3, 30), (3, 31), (4, 24), (4, 27), (4, 28), (4, 32), (5, 23), (5, 24),
                 (5, 25), (5, 26), (5, 28), (5, 29), (5, 32), (5, 33), (6, 23), (6, 25), (6, 26), (6, 31), (7, 25),
                 (7, 26), (7, 27), (7, 28), (7, 30), (7, 31), (7, 32), (8, 24), (8, 26), (8, 27), (8, 28), (8, 29),
                 (8, 30), (8, 33), (9, 24), (9, 27), (9, 28), (9, 29), (9, 31), (9, 32), (9, 33), (10, 23), (10, 24),
                 (10, 26), (10, 27), (10, 30), (10, 31), (10, 32), (11, 24), (11, 25), (11, 26), (11, 27), (11, 28),
                 (11, 31), (11, 33), (12, 27), (12, 29), (12, 30), (12, 31), (12, 32), (13, 23), (13, 25), (13, 30),
                 (13, 31), (13, 32))
$ Visualisation for prerequisite
$  1 27
$  1 30
$  1 32
$  1 33
$  2 23
$  2 24
$  2 25
$  2 27
$  2 29
$  2 30
$  2 31
$  3 25
$  3 28
$  3 29
$  3 30
$  3 31
$  4 24
$  4 27
$  4 28
$  4 32
$  5 23
$  5 24
$  5 25
$  5 26
$  5 28
$  5 29
$  5 32
$  5 33
$  6 23
$  6 25
$  6 26
$  6 31
$  7 25
$  7 26
$  7 27
$  7 28
$  7 30
$  7 31
$  7 32
$  8 24
$  8 26
$  8 27
$  8 28
$  8 29
$  8 30
$  8 33
$  9 24
$  9 27
$  9 28
$  9 29
$  9 31
$  9 32
$  9 33
$ 10 23
$ 10 24
$ 10 26
$ 10 27
$ 10 30
$ 10 31
$ 10 32
$ 11 24
$ 11 25
$ 11 26
$ 11 27
$ 11 28
$ 11 31
$ 11 33
$ 12 27
$ 12 29
$ 12 30
$ 12 31
$ 12 32
$ 13 23
$ 13 25
$ 13 30
$ 13 31
$ 13 32

